Traveling Salesman Problem/TSP_generados/Aleatorio1621103352_11.tsp
NAME: Aleatorio1621103352_11.tsp
COMMENT: Randomly generated scenario
TYPE: TSP
DIMENSION: 11
EDGE_WEIGHT_TYPE: ATT
NODE_COORD_SECTION
1 1.91 38.59
2 28.8 0.53
3 22.67 2.22
4 38.89 39.99
5 17.42 26.8
6 19.07 29.97
7 25.96 28.48
8 24.95 27.4
9 22.44 23.65
10 46.8 1.87
11 30.03 41.46
