Traveling Salesman Problem/TSP_generados/Aleatorio1621103352_11.opt.tour
NAME: Aleatorio1621103352_11.opt.tour
COMMENT: Optimal solution for Aleatorio1621103352_11 (158.11552355428037)
TYPE: TOUR
DIMENSION: 11
TOUR_SECTION
1 5 6 7 8 9 3 2 10 4 11
-1
EOF
